Route #1: 37 6
Route #2:
Route #3: 8 10 9 45 15 11 46
Route #4: 24 21 39 28 36 14 33 23 44
Route #5: 26 41 19 48 2 16
Route #6: 13 27 29 4 1 43 25 32
Route #7: 7 20 38 30 31 22 40 34
Route #8: 47 18 17 42 35 5 12 3
Cost: 1655420
